letting n =  10
letting blocks =  [[1, 1], [1, 2], [1, 7], [1, 8], [1, 9], [1, 10], [2, 2], [2, 6], [2, 8], [2, 10], [3, 1], [3, 4], [3, 5], [3, 9], [3, 10], [4, 2], [4, 4], [4, 6], [4, 7], [4, 9], [4, 10], [5, 2], [5, 3], [5, 4], [5, 6], [5, 7], [5, 8], [6, 1], [6, 3], [6, 6], [6, 7], [6, 8], [6, 9], [7, 1], [7, 2], [7, 5], [7, 6], [8, 1], [8, 3], [8, 7], [8, 8], [8, 9], [8, 10], [9, 1], [9, 2], [9, 4], [9, 7], [9, 8], [9, 9], [10, 3], [10, 4], [10, 5], [10, 6], [10, 10]]
